NAME: Li-27
BEST_KNOWN: 17433.69
COMMENT: 17433.690000
DIMENSION: 841
CAPACITY: 900
DISTANCE: 900
EDGE_WEIGHT_FORMAT: FUNCTION
EDGE_WEIGHT_TYPE: EXACT_2D
NODE_COORD_SECTION
1 0.00000 0.00000
2 30.00000 0.00000
3 29.91610 2.24190
4 29.66490 4.47130
5 29.24780 6.67560
6 28.66720 8.84270
7 27.92620 10.96020
8 27.02910 13.01650
9 25.98080 15.00000
10 24.78720 16.89960
11 23.45490 18.70470
12 21.99160 20.40520
13 20.40520 21.99160
14 18.70470 23.45490
15 16.89960 24.78720
16 15.00000 25.98080
17 13.01650 27.02910
18 10.96020 27.92620
19 8.84270 28.66720
20 6.67560 29.24780
21 4.47130 29.66490
22 2.24190 29.91610
23 0.00000 30.00000
24 -2.24190 29.91610
25 -4.47130 29.66490
26 -6.67560 29.24780
27 -8.84270 28.66720
28 -10.96020 27.92620
29 -13.01650 27.02910
30 -15.00000 25.98080
31 -16.89960 24.78720
32 -18.70470 23.45490
33 -20.40520 21.99160
34 -21.99160 20.40520
35 -23.45490 18.70470
36 -24.78720 16.89960
37 -25.98080 15.00000
38 -27.02910 13.01650
39 -27.92620 10.96020
40 -28.66720 8.84270
41 -29.24780 6.67560
42 -29.66490 4.47130
43 -29.91610 2.24190
44 -30.00000 0.00000
45 -29.91610 -2.24190
46 -29.66490 -4.47130
47 -29.24780 -6.67560
48 -28.66720 -8.84270
49 -27.92620 -10.96020
50 -27.02910 -13.01650
51 -25.98080 -15.00000
52 -24.78720 -16.89960
53 -23.45490 -18.70470
54 -21.99160 -20.40520
55 -20.40520 -21.99160
56 -18.70470 -23.45490
57 -16.89960 -24.78720
58 -15.00000 -25.98080
59 -13.01650 -27.02910
60 -10.96020 -27.92620
61 -8.84270 -28.66720
62 -6.67560 -29.24780
63 -4.47130 -29.66490
64 -2.24190 -29.91610
65 -0.00000 -30.00000
66 2.24190 -29.91610
67 4.47130 -29.66490
68 6.67560 -29.24780
69 8.84270 -28.66720
70 10.96020 -27.92620
71 13.01650 -27.02910
72 15.00000 -25.98080
73 16.89960 -24.78720
74 18.70470 -23.45490
75 20.40520 -21.99160
76 21.99160 -20.40520
77 23.45490 -18.70470
78 24.78720 -16.89960
79 25.98080 -15.00000
80 27.02910 -13.01650
81 27.92620 -10.96020
82 28.66720 -8.84270
83 29.24780 -6.67560
84 29.66490 -4.47130
85 29.91610 -2.24190
86 60.00000 0.00000
87 59.83220 4.48380
88 59.32980 8.94250
89 58.49570 13.35130
90 57.33440 17.68530
91 55.85240 21.92050
92 54.05810 26.03300
93 51.96150 30.00000
94 49.57430 33.79920
95 46.90990 37.40940
96 43.98310 40.81040
97 40.81040 43.98310
98 37.40940 46.90990
99 33.79920 49.57430
100 30.00000 51.96150
101 26.03300 54.05810
102 21.92050 55.85240
103 17.68530 57.33440
104 13.35130 58.49570
105 8.94250 59.32980
106 4.48380 59.83220
107 0.00000 60.00000
108 -4.48380 59.83220
109 -8.94250 59.32980
110 -13.35130 58.49570
111 -17.68530 57.33440
112 -21.92050 55.85240
113 -26.03300 54.05810
114 -30.00000 51.96150
115 -33.79920 49.57430
116 -37.40940 46.90990
117 -40.81040 43.98310
118 -43.98310 40.81040
119 -46.90990 37.40940
120 -49.57430 33.79920
121 -51.96150 30.00000
122 -54.05810 26.03300
123 -55.85240 21.92050
124 -57.33440 17.68530
125 -58.49570 13.35130
126 -59.32980 8.94250
127 -59.83220 4.48380
128 -60.00000 0.00000
129 -59.83220 -4.48380
130 -59.32980 -8.94250
131 -58.49570 -13.35130
132 -57.33440 -17.68530
133 -55.85240 -21.92050
134 -54.05810 -26.03300
135 -51.96150 -30.00000
136 -49.57430 -33.79920
137 -46.90990 -37.40940
138 -43.98310 -40.81040
139 -40.81040 -43.98310
140 -37.40940 -46.90990
141 -33.79920 -49.57430
142 -30.00000 -51.96150
143 -26.03300 -54.05810
144 -21.92050 -55.85240
145 -17.68530 -57.33440
146 -13.35130 -58.49570
147 -8.94250 -59.32980
148 -4.48380 -59.83220
149 -0.00000 -60.00000
150 4.48380 -59.83220
151 8.94250 -59.32980
152 13.35130 -58.49570
153 17.68530 -57.33440
154 21.92050 -55.85240
155 26.03300 -54.05810
156 30.00000 -51.96150
157 33.79920 -49.57430
158 37.40940 -46.90990
159 40.81040 -43.98310
160 43.98310 -40.81040
161 46.90990 -37.40940
162 49.57430 -33.79920
163 51.96150 -30.00000
164 54.05810 -26.03300
165 55.85240 -21.92050
166 57.33440 -17.68530
167 58.49570 -13.35130
168 59.32980 -8.94250
169 59.83220 -4.48380
170 90.00000 0.00000
171 89.74830 6.72570
172 88.99480 13.41380
173 87.74350 20.02690
174 86.00160 26.52800
175 83.77860 32.88070
176 81.08720 39.04950
177 77.94230 45.00000
178 74.36150 50.69880
179 70.36480 56.11410
180 65.97470 61.21550
181 61.21550 65.97470
182 56.11410 70.36480
183 50.69880 74.36150
184 45.00000 77.94230
185 39.04950 81.08720
186 32.88070 83.77860
187 26.52800 86.00160
188 20.02690 87.74350
189 13.41380 88.99480
190 6.72570 89.74830
191 0.00000 90.00000
192 -6.72570 89.74830
193 -13.41380 88.99480
194 -20.02690 87.74350
195 -26.52800 86.00160
196 -32.88070 83.77860
197 -39.04950 81.08720
198 -45.00000 77.94230
199 -50.69880 74.36150
200 -56.11410 70.36480
201 -61.21550 65.97470
202 -65.97470 61.21550
203 -70.36480 56.11410
204 -74.36150 50.69880
205 -77.94230 45.00000
206 -81.08720 39.04950
207 -83.77860 32.88070
208 -86.00160 26.52800
209 -87.74350 20.02690
210 -88.99480 13.41380
211 -89.74830 6.72570
212 -90.00000 0.00000
213 -89.74830 -6.72570
214 -88.99480 -13.41380
215 -87.74350 -20.02690
216 -86.00160 -26.52800
217 -83.77860 -32.88070
218 -81.08720 -39.04950
219 -77.94230 -45.00000
220 -74.36150 -50.69880
221 -70.36480 -56.11410
222 -65.97470 -61.21550
223 -61.21550 -65.97470
224 -56.11410 -70.36480
225 -50.69880 -74.36150
226 -45.00000 -77.94230
227 -39.04950 -81.08720
228 -32.88070 -83.77860
229 -26.52800 -86.00160
230 -20.02690 -87.74350
231 -13.41380 -88.99480
232 -6.72570 -89.74830
233 -0.00000 -90.00000
234 6.72570 -89.74830
235 13.41380 -88.99480
236 20.02690 -87.74350
237 26.52800 -86.00160
238 32.88070 -83.77860
239 39.04950 -81.08720
240 45.00000 -77.94230
241 50.69880 -74.36150
242 56.11410 -70.36480
243 61.21550 -65.97470
244 65.97470 -61.21550
245 70.36480 -56.11410
246 74.36150 -50.69880
247 77.94230 -45.00000
248 81.08720 -39.04950
249 83.77860 -32.88070
250 86.00160 -26.52800
251 87.74350 -20.02690
252 88.99480 -13.41380
253 89.74830 -6.72570
254 120.00000 0.00000
255 119.66450 8.96760
256 118.65970 17.88510
257 116.99130 26.70250
258 114.66870 35.37060
259 111.70480 43.84090
260 108.11630 52.06600
261 103.92300 60.00000
262 99.14870 67.59840
263 93.81980 74.81880
264 87.96620 81.62070
265 81.62070 87.96620
266 74.81880 93.81980
267 67.59840 99.14870
268 60.00000 103.92300
269 52.06600 108.11630
270 43.84090 111.70480
271 35.37060 114.66870
272 26.70250 116.99130
273 17.88510 118.65970
274 8.96760 119.66450
275 0.00000 120.00000
276 -8.96760 119.66450
277 -17.88510 118.65970
278 -26.70250 116.99130
279 -35.37060 114.66870
280 -43.84090 111.70480
281 -52.06600 108.11630
282 -60.00000 103.92300
283 -67.59840 99.14870
284 -74.81880 93.81980
285 -81.62070 87.96620
286 -87.96620 81.62070
287 -93.81980 74.81880
288 -99.14870 67.59840
289 -103.92300 60.00000
290 -108.11630 52.06600
291 -111.70480 43.84090
292 -114.66870 35.37060
293 -116.99130 26.70250
294 -118.65970 17.88510
295 -119.66450 8.96760
296 -120.00000 0.00000
297 -119.66450 -8.96760
298 -118.65970 -17.88510
299 -116.99130 -26.70250
300 -114.66870 -35.37060
301 -111.70480 -43.84090
302 -108.11630 -52.06600
303 -103.92300 -60.00000
304 -99.14870 -67.59840
305 -93.81980 -74.81880
306 -87.96620 -81.62070
307 -81.62070 -87.96620
308 -74.81880 -93.81980
309 -67.59840 -99.14870
310 -60.00000 -103.92300
311 -52.06600 -108.11630
312 -43.84090 -111.70480
313 -35.37060 -114.66870
314 -26.70250 -116.99130
315 -17.88510 -118.65970
316 -8.96760 -119.66450
317 -0.00000 -120.00000
318 8.96760 -119.66450
319 17.88510 -118.65970
320 26.70250 -116.99130
321 35.37060 -114.66870
322 43.84090 -111.70480
323 52.06600 -108.11630
324 60.00000 -103.92300
325 67.59840 -99.14870
326 74.81880 -93.81980
327 81.62070 -87.96620
328 87.96620 -81.62070
329 93.81980 -74.81880
330 99.14870 -67.59840
331 103.92300 -60.00000
332 108.11630 -52.06600
333 111.70480 -43.84090
334 114.66870 -35.37060
335 116.99130 -26.70250
336 118.65970 -17.88510
337 119.66450 -8.96760
338 150.00000 0.00000
339 149.58060 11.20950
340 148.32460 22.35630
341 146.23920 33.37810
342 143.33591 44.21330
343 139.63110 54.80120
344 135.14529 65.08260
345 129.90379 75.00000
346 123.93580 84.49800
347 117.27470 93.52350
348 109.95780 102.02590
349 102.02590 109.95780
350 93.52350 117.27470
351 84.49800 123.93580
352 75.00000 129.90379
353 65.08260 135.14529
354 54.80120 139.63110
355 44.21330 143.33591
356 33.37810 146.23920
357 22.35630 148.32460
358 11.20950 149.58060
359 0.00000 150.00000
360 -11.20950 149.58060
361 -22.35630 148.32460
362 -33.37810 146.23920
363 -44.21330 143.33591
364 -54.80120 139.63110
365 -65.08260 135.14529
366 -75.00000 129.90379
367 -84.49800 123.93580
368 -93.52350 117.27470
369 -102.02590 109.95780
370 -109.95780 102.02590
371 -117.27470 93.52350
372 -123.93580 84.49800
373 -129.90379 75.00000
374 -135.14529 65.08260
375 -139.63110 54.80120
376 -143.33591 44.21330
377 -146.23920 33.37810
378 -148.32460 22.35630
379 -149.58060 11.20950
380 -150.00000 0.00000
381 -149.58060 -11.20950
382 -148.32460 -22.35630
383 -146.23920 -33.37810
384 -143.33591 -44.21330
385 -139.63110 -54.80120
386 -135.14529 -65.08260
387 -129.90379 -75.00000
388 -123.93580 -84.49800
389 -117.27470 -93.52350
390 -109.95780 -102.02590
391 -102.02590 -109.95780
392 -93.52350 -117.27470
393 -84.49800 -123.93580
394 -75.00000 -129.90379
395 -65.08260 -135.14529
396 -54.80120 -139.63110
397 -44.21330 -143.33591
398 -33.37810 -146.23920
399 -22.35630 -148.32460
400 -11.20950 -149.58060
401 -0.00000 -150.00000
402 11.20950 -149.58060
403 22.35630 -148.32460
404 33.37810 -146.23920
405 44.21330 -143.33591
406 54.80120 -139.63110
407 65.08260 -135.14529
408 75.00000 -129.90379
409 84.49800 -123.93580
410 93.52350 -117.27470
411 102.02590 -109.95780
412 109.95780 -102.02590
413 117.27470 -93.52350
414 123.93580 -84.49800
415 129.90379 -75.00000
416 135.14529 -65.08260
417 139.63110 -54.80120
418 143.33591 -44.21330
419 146.23920 -33.37810
420 148.32460 -22.35630
421 149.58060 -11.20950
422 180.00000 0.00000
423 179.49670 13.45140
424 177.98950 26.82760
425 175.48700 40.05380
426 172.00310 53.05590
427 167.55730 65.76140
428 162.17439 78.09910
429 155.88460 90.00000
430 148.72301 101.39760
431 140.72971 112.22820
432 131.94930 122.43110
433 122.43110 131.94930
434 112.22820 140.72971
435 101.39760 148.72301
436 90.00000 155.88460
437 78.09910 162.17439
438 65.76140 167.55730
439 53.05590 172.00310
440 40.05380 175.48700
441 26.82760 177.98950
442 13.45140 179.49670
443 0.00000 180.00000
444 -13.45140 179.49670
445 -26.82760 177.98950
446 -40.05380 175.48700
447 -53.05590 172.00310
448 -65.76140 167.55730
449 -78.09910 162.17439
450 -90.00000 155.88460
451 -101.39760 148.72301
452 -112.22820 140.72971
453 -122.43110 131.94930
454 -131.94930 122.43110
455 -140.72971 112.22820
456 -148.72301 101.39760
457 -155.88460 90.00000
458 -162.17439 78.09910
459 -167.55730 65.76140
460 -172.00310 53.05590
461 -175.48700 40.05380
462 -177.98950 26.82760
463 -179.49670 13.45140
464 -180.00000 0.00000
465 -179.49670 -13.45140
466 -177.98950 -26.82760
467 -175.48700 -40.05380
468 -172.00310 -53.05590
469 -167.55730 -65.76140
470 -162.17439 -78.09910
471 -155.88460 -90.00000
472 -148.72301 -101.39760
473 -140.72971 -112.22820
474 -131.94930 -122.43110
475 -122.43110 -131.94930
476 -112.22820 -140.72971
477 -101.39760 -148.72301
478 -90.00000 -155.88460
479 -78.09910 -162.17439
480 -65.76140 -167.55730
481 -53.05590 -172.00310
482 -40.05380 -175.48700
483 -26.82760 -177.98950
484 -13.45140 -179.49670
485 -0.00000 -180.00000
486 13.45140 -179.49670
487 26.82760 -177.98950
488 40.05380 -175.48700
489 53.05590 -172.00310
490 65.76140 -167.55730
491 78.09910 -162.17439
492 90.00000 -155.88460
493 101.39760 -148.72301
494 112.22820 -140.72971
495 122.43110 -131.94930
496 131.94930 -122.43110
497 140.72971 -112.22820
498 148.72301 -101.39760
499 155.88460 -90.00000
500 162.17439 -78.09910
501 167.55730 -65.76140
502 172.00310 -53.05590
503 175.48700 -40.05380
504 177.98950 -26.82760
505 179.49670 -13.45140
506 210.00000 0.00000
507 209.41280 15.69330
508 207.65450 31.29890
509 204.73489 46.72940
510 200.67030 61.89860
511 195.48351 76.72160
512 189.20351 91.11560
513 181.86530 105.00000
514 173.51010 118.29720
515 164.18460 130.93291
516 153.94090 142.83630
517 142.83630 153.94090
518 130.93291 164.18460
519 118.29720 173.51010
520 105.00000 181.86530
521 91.11560 189.20351
522 76.72160 195.48351
523 61.89860 200.67030
524 46.72940 204.73489
525 31.29890 207.65450
526 15.69330 209.41280
527 0.00000 210.00000
528 -15.69330 209.41280
529 -31.29890 207.65450
530 -46.72940 204.73489
531 -61.89860 200.67030
532 -76.72160 195.48351
533 -91.11560 189.20351
534 -105.00000 181.86530
535 -118.29720 173.51010
536 -130.93291 164.18460
537 -142.83630 153.94090
538 -153.94090 142.83630
539 -164.18460 130.93291
540 -173.51010 118.29720
541 -181.86530 105.00000
542 -189.20351 91.11560
543 -195.48351 76.72160
544 -200.67030 61.89860
545 -204.73489 46.72940
546 -207.65450 31.29890
547 -209.41280 15.69330
548 -210.00000 0.00000
549 -209.41280 -15.69330
550 -207.65450 -31.29890
551 -204.73489 -46.72940
552 -200.67030 -61.89860
553 -195.48351 -76.72160
554 -189.20351 -91.11560
555 -181.86530 -105.00000
556 -173.51010 -118.29720
557 -164.18460 -130.93291
558 -153.94090 -142.83630
559 -142.83630 -153.94090
560 -130.93291 -164.18460
561 -118.29720 -173.51010
562 -105.00000 -181.86530
563 -91.11560 -189.20351
564 -76.72160 -195.48351
565 -61.89860 -200.67030
566 -46.72940 -204.73489
567 -31.29890 -207.65450
568 -15.69330 -209.41280
569 -0.00000 -210.00000
570 15.69330 -209.41280
571 31.29890 -207.65450
572 46.72940 -204.73489
573 61.89860 -200.67030
574 76.72160 -195.48351
575 91.11560 -189.20351
576 105.00000 -181.86530
577 118.29720 -173.51010
578 130.93291 -164.18460
579 142.83630 -153.94090
580 153.94090 -142.83630
581 164.18460 -130.93291
582 173.51010 -118.29720
583 181.86530 -105.00000
584 189.20351 -91.11560
585 195.48351 -76.72160
586 200.67030 -61.89860
587 204.73489 -46.72940
588 207.65450 -31.29890
589 209.41280 -15.69330
590 240.00000 0.00000
591 239.32890 17.93520
592 237.31940 35.77010
593 233.98270 53.40500
594 229.33749 70.74120
595 223.40970 87.68180
596 216.23250 104.13210
597 207.84610 120.00000
598 198.29730 135.19679
599 187.63960 149.63760
600 175.93240 163.24150
601 163.24150 175.93240
602 149.63760 187.63960
603 135.19679 198.29730
604 120.00000 207.84610
605 104.13210 216.23250
606 87.68180 223.40970
607 70.74120 229.33749
608 53.40500 233.98270
609 35.77010 237.31940
610 17.93520 239.32890
611 0.00000 240.00000
612 -17.93520 239.32890
613 -35.77010 237.31940
614 -53.40500 233.98270
615 -70.74120 229.33749
616 -87.68180 223.40970
617 -104.13210 216.23250
618 -120.00000 207.84610
619 -135.19679 198.29730
620 -149.63760 187.63960
621 -163.24150 175.93240
622 -175.93240 163.24150
623 -187.63960 149.63760
624 -198.29730 135.19679
625 -207.84610 120.00000
626 -216.23250 104.13210
627 -223.40970 87.68180
628 -229.33749 70.74120
629 -233.98270 53.40500
630 -237.31940 35.77010
631 -239.32890 17.93520
632 -240.00000 0.00000
633 -239.32890 -17.93520
634 -237.31940 -35.77010
635 -233.98270 -53.40500
636 -229.33749 -70.74120
637 -223.40970 -87.68180
638 -216.23250 -104.13210
639 -207.84610 -120.00000
640 -198.29730 -135.19679
641 -187.63960 -149.63760
642 -175.93240 -163.24150
643 -163.24150 -175.93240
644 -149.63760 -187.63960
645 -135.19679 -198.29730
646 -120.00000 -207.84610
647 -104.13210 -216.23250
648 -87.68180 -223.40970
649 -70.74120 -229.33749
650 -53.40500 -233.98270
651 -35.77010 -237.31940
652 -17.93520 -239.32890
653 -0.00000 -240.00000
654 17.93520 -239.32890
655 35.77010 -237.31940
656 53.40500 -233.98270
657 70.74120 -229.33749
658 87.68180 -223.40970
659 104.13210 -216.23250
660 120.00000 -207.84610
661 135.19679 -198.29730
662 149.63760 -187.63960
663 163.24150 -175.93240
664 175.93240 -163.24150
665 187.63960 -149.63760
666 198.29730 -135.19679
667 207.84610 -120.00000
668 216.23250 -104.13210
669 223.40970 -87.68180
670 229.33749 -70.74120
671 233.98270 -53.40500
672 237.31940 -35.77010
673 239.32890 -17.93520
674 270.00000 0.00000
675 269.24500 20.17710
676 266.98431 40.24140
677 263.23050 60.08070
678 258.00470 79.58390
679 251.33591 98.64210
680 243.26160 117.14860
681 233.82690 135.00000
682 223.08450 152.09641
683 211.09450 168.34219
684 197.92400 183.64661
685 183.64661 197.92400
686 168.34219 211.09450
687 152.09641 223.08450
688 135.00000 233.82690
689 117.14860 243.26160
690 98.64210 251.33591
691 79.58390 258.00470
692 60.08070 263.23050
693 40.24140 266.98431
694 20.17710 269.24500
695 0.00000 270.00000
696 -20.17710 269.24500
697 -40.24140 266.98431
698 -60.08070 263.23050
699 -79.58390 258.00470
700 -98.64210 251.33591
701 -117.14860 243.26160
702 -135.00000 233.82690
703 -152.09641 223.08450
704 -168.34219 211.09450
705 -183.64661 197.92400
706 -197.92400 183.64661
707 -211.09450 168.34219
708 -223.08450 152.09641
709 -233.82690 135.00000
710 -243.26160 117.14860
711 -251.33591 98.64210
712 -258.00470 79.58390
713 -263.23050 60.08070
714 -266.98431 40.24140
715 -269.24500 20.17710
716 -270.00000 0.00000
717 -269.24500 -20.17710
718 -266.98431 -40.24140
719 -263.23050 -60.08070
720 -258.00470 -79.58390
721 -251.33591 -98.64210
722 -243.26160 -117.14860
723 -233.82690 -135.00000
724 -223.08450 -152.09641
725 -211.09450 -168.34219
726 -197.92400 -183.64661
727 -183.64661 -197.92400
728 -168.34219 -211.09450
729 -152.09641 -223.08450
730 -135.00000 -233.82690
731 -117.14860 -243.26160
732 -98.64210 -251.33591
733 -79.58390 -258.00470
734 -60.08070 -263.23050
735 -40.24140 -266.98431
736 -20.17710 -269.24500
737 -0.00000 -270.00000
738 20.17710 -269.24500
739 40.24140 -266.98431
740 60.08070 -263.23050
741 79.58390 -258.00470
742 98.64210 -251.33591
743 117.14860 -243.26160
744 135.00000 -233.82690
745 152.09641 -223.08450
746 168.34219 -211.09450
747 183.64661 -197.92400
748 197.92400 -183.64661
749 211.09450 -168.34219
750 223.08450 -152.09641
751 233.82690 -135.00000
752 243.26160 -117.14860
753 251.33591 -98.64210
754 258.00470 -79.58390
755 263.23050 -60.08070
756 266.98431 -40.24140
757 269.24500 -20.17710
758 300.00000 0.00000
759 299.16110 22.41900
760 296.64920 44.71270
761 292.47839 66.75630
762 286.67181 88.42660
763 279.26208 109.60230
764 270.29071 130.16510
765 259.80759 150.00000
766 247.87160 168.99600
767 234.54939 187.04691
768 219.91560 204.05180
769 204.05180 219.91560
770 187.04691 234.54939
771 168.99600 247.87160
772 150.00000 259.80759
773 130.16510 270.29071
774 109.60230 279.26208
775 88.42660 286.67181
776 66.75630 292.47839
777 44.71270 296.64920
778 22.41900 299.16110
779 0.00000 300.00000
780 -22.41900 299.16110
781 -44.71270 296.64920
782 -66.75630 292.47839
783 -88.42660 286.67181
784 -109.60230 279.26208
785 -130.16510 270.29071
786 -150.00000 259.80759
787 -168.99600 247.87160
788 -187.04691 234.54939
789 -204.05180 219.91560
790 -219.91560 204.05180
791 -234.54939 187.04691
792 -247.87160 168.99600
793 -259.80759 150.00000
794 -270.29071 130.16510
795 -279.26208 109.60230
796 -286.67181 88.42660
797 -292.47839 66.75630
798 -296.64920 44.71270
799 -299.16110 22.41900
800 -300.00000 0.00000
801 -299.16110 -22.41900
802 -296.64920 -44.71270
803 -292.47839 -66.75630
804 -286.67181 -88.42660
805 -279.26208 -109.60230
806 -270.29071 -130.16510
807 -259.80759 -150.00000
808 -247.87160 -168.99600
809 -234.54939 -187.04691
810 -219.91560 -204.05180
811 -204.05180 -219.91560
812 -187.04691 -234.54939
813 -168.99600 -247.87160
814 -150.00000 -259.80759
815 -130.16510 -270.29071
816 -109.60230 -279.26208
817 -88.42660 -286.67181
818 -66.75630 -292.47839
819 -44.71270 -296.64920
820 -22.41900 -299.16110
821 -0.00000 -300.00000
822 22.41900 -299.16110
823 44.71270 -296.64920
824 66.75630 -292.47839
825 88.42660 -286.67181
826 109.60230 -279.26208
827 130.16510 -270.29071
828 150.00000 -259.80759
829 168.99600 -247.87160
830 187.04691 -234.54939
831 204.05180 -219.91560
832 219.91560 -204.05180
833 234.54939 -187.04691
834 247.87160 -168.99600
835 259.80759 -150.00000
836 270.29071 -130.16510
837 279.26208 -109.60230
838 286.67181 -88.42660
839 292.47839 -66.75630
840 296.64920 -44.71270
841 299.16110 -22.41900
DEMAND_SECTION
1 0
2 10
3 30
4 30
5 10
6 10
7 30
8 30
9 10
10 10
11 30
12 30
13 10
14 10
15 30
16 30
17 10
18 10
19 30
20 30
21 10
22 10
23 30
24 30
25 10
26 10
27 30
28 30
29 10
30 10
31 30
32 30
33 10
34 10
35 30
36 30
37 10
38 10
39 30
40 30
41 10
42 10
43 30
44 30
45 10
46 10
47 30
48 30
49 10
50 10
51 30
52 30
53 10
54 10
55 30
56 30
57 10
58 10
59 30
60 30
61 10
62 10
63 30
64 30
65 10
66 10
67 30
68 30
69 10
70 10
71 30
72 30
73 10
74 10
75 30
76 30
77 10
78 10
79 30
80 30
81 10
82 10
83 30
84 30
85 10
86 10
87 30
88 30
89 10
90 10
91 30
92 30
93 10
94 10
95 30
96 30
97 10
98 10
99 30
100 30
101 10
102 10
103 30
104 30
105 10
106 10
107 30
108 30
109 10
110 10
111 30
112 30
113 10
114 10
115 30
116 30
117 10
118 10
119 30
120 30
121 10
122 10
123 30
124 30
125 10
126 10
127 30
128 30
129 10
130 10
131 30
132 30
133 10
134 10
135 30
136 30
137 10
138 10
139 30
140 30
141 10
142 10
143 30
144 30
145 10
146 10
147 30
148 30
149 10
150 10
151 30
152 30
153 10
154 10
155 30
156 30
157 10
158 10
159 30
160 30
161 10
162 10
163 30
164 30
165 10
166 10
167 30
168 30
169 10
170 10
171 30
172 30
173 10
174 10
175 30
176 30
177 10
178 10
179 30
180 30
181 10
182 10
183 30
184 30
185 10
186 10
187 30
188 30
189 10
190 10
191 30
192 30
193 10
194 10
195 30
196 30
197 10
198 10
199 30
200 30
201 10
202 10
203 30
204 30
205 10
206 10
207 30
208 30
209 10
210 10
211 30
212 30
213 10
214 10
215 30
216 30
217 10
218 10
219 30
220 30
221 10
222 10
223 30
224 30
225 10
226 10
227 30
228 30
229 10
230 10
231 30
232 30
233 10
234 10
235 30
236 30
237 10
238 10
239 30
240 30
241 10
242 10
243 30
244 30
245 10
246 10
247 30
248 30
249 10
250 10
251 30
252 30
253 10
254 10
255 30
256 30
257 10
258 10
259 30
260 30
261 10
262 10
263 30
264 30
265 10
266 10
267 30
268 30
269 10
270 10
271 30
272 30
273 10
274 10
275 30
276 30
277 10
278 10
279 30
280 30
281 10
282 10
283 30
284 30
285 10
286 10
287 30
288 30
289 10
290 10
291 30
292 30
293 10
294 10
295 30
296 30
297 10
298 10
299 30
300 30
301 10
302 10
303 30
304 30
305 10
306 10
307 30
308 30
309 10
310 10
311 30
312 30
313 10
314 10
315 30
316 30
317 10
318 10
319 30
320 30
321 10
322 10
323 30
324 30
325 10
326 10
327 30
328 30
329 10
330 10
331 30
332 30
333 10
334 10
335 30
336 30
337 10
338 10
339 30
340 30
341 10
342 10
343 30
344 30
345 10
346 10
347 30
348 30
349 10
350 10
351 30
352 30
353 10
354 10
355 30
356 30
357 10
358 10
359 30
360 30
361 10
362 10
363 30
364 30
365 10
366 10
367 30
368 30
369 10
370 10
371 30
372 30
373 10
374 10
375 30
376 30
377 10
378 10
379 30
380 30
381 10
382 10
383 30
384 30
385 10
386 10
387 30
388 30
389 10
390 10
391 30
392 30
393 10
394 10
395 30
396 30
397 10
398 10
399 30
400 30
401 10
402 10
403 30
404 30
405 10
406 10
407 30
408 30
409 10
410 10
411 30
412 30
413 10
414 10
415 30
416 30
417 10
418 10
419 30
420 30
421 10
422 10
423 30
424 30
425 10
426 10
427 30
428 30
429 10
430 10
431 30
432 30
433 10
434 10
435 30
436 30
437 10
438 10
439 30
440 30
441 10
442 10
443 30
444 30
445 10
446 10
447 30
448 30
449 10
450 10
451 30
452 30
453 10
454 10
455 30
456 30
457 10
458 10
459 30
460 30
461 10
462 10
463 30
464 30
465 10
466 10
467 30
468 30
469 10
470 10
471 30
472 30
473 10
474 10
475 30
476 30
477 10
478 10
479 30
480 30
481 10
482 10
483 30
484 30
485 10
486 10
487 30
488 30
489 10
490 10
491 30
492 30
493 10
494 10
495 30
496 30
497 10
498 10
499 30
500 30
501 10
502 10
503 30
504 30
505 10
506 10
507 30
508 30
509 10
510 10
511 30
512 30
513 10
514 10
515 30
516 30
517 10
518 10
519 30
520 30
521 10
522 10
523 30
524 30
525 10
526 10
527 30
528 30
529 10
530 10
531 30
532 30
533 10
534 10
535 30
536 30
537 10
538 10
539 30
540 30
541 10
542 10
543 30
544 30
545 10
546 10
547 30
548 30
549 10
550 10
551 30
552 30
553 10
554 10
555 30
556 30
557 10
558 10
559 30
560 30
561 10
562 10
563 30
564 30
565 10
566 10
567 30
568 30
569 10
570 10
571 30
572 30
573 10
574 10
575 30
576 30
577 10
578 10
579 30
580 30
581 10
582 10
583 30
584 30
585 10
586 10
587 30
588 30
589 10
590 10
591 30
592 30
593 10
594 10
595 30
596 30
597 10
598 10
599 30
600 30
601 10
602 10
603 30
604 30
605 10
606 10
607 30
608 30
609 10
610 10
611 30
612 30
613 10
614 10
615 30
616 30
617 10
618 10
619 30
620 30
621 10
622 10
623 30
624 30
625 10
626 10
627 30
628 30
629 10
630 10
631 30
632 30
633 10
634 10
635 30
636 30
637 10
638 10
639 30
640 30
641 10
642 10
643 30
644 30
645 10
646 10
647 30
648 30
649 10
650 10
651 30
652 30
653 10
654 10
655 30
656 30
657 10
658 10
659 30
660 30
661 10
662 10
663 30
664 30
665 10
666 10
667 30
668 30
669 10
670 10
671 30
672 30
673 10
674 10
675 30
676 30
677 10
678 10
679 30
680 30
681 10
682 10
683 30
684 30
685 10
686 10
687 30
688 30
689 10
690 10
691 30
692 30
693 10
694 10
695 30
696 30
697 10
698 10
699 30
700 30
701 10
702 10
703 30
704 30
705 10
706 10
707 30
708 30
709 10
710 10
711 30
712 30
713 10
714 10
715 30
716 30
717 10
718 10
719 30
720 30
721 10
722 10
723 30
724 30
725 10
726 10
727 30
728 30
729 10
730 10
731 30
732 30
733 10
734 10
735 30
736 30
737 10
738 10
739 30
740 30
741 10
742 10
743 30
744 30
745 10
746 10
747 30
748 30
749 10
750 10
751 30
752 30
753 10
754 10
755 30
756 30
757 10
758 10
759 30
760 30
761 10
762 10
763 30
764 30
765 10
766 10
767 30
768 30
769 10
770 10
771 30
772 30
773 10
774 10
775 30
776 30
777 10
778 10
779 30
780 30
781 10
782 10
783 30
784 30
785 10
786 10
787 30
788 30
789 10
790 10
791 30
792 30
793 10
794 10
795 30
796 30
797 10
798 10
799 30
800 30
801 10
802 10
803 30
804 30
805 10
806 10
807 30
808 30
809 10
810 10
811 30
812 30
813 10
814 10
815 30
816 30
817 10
818 10
819 30
820 30
821 10
822 10
823 30
824 30
825 10
826 10
827 30
828 30
829 10
830 10
831 30
832 30
833 10
834 10
835 30
836 30
837 10
838 10
839 30
840 30
841 10
DEPOT_SECTION
1
-1
EOF
